2080515
20 5 53722
5 18 90145
18 8 112034
8 15 67784
15 19 105167
19 4 238490
4 16 223221
16 10 21151
10 14 95892
14 6 287666
6 12 255761
12 9 50022
9 7 126907
7 1 35813
1 2 106843
2 3 14476
3 17 20583
17 13 27808
13 11 112237
11 20 34793
